
  32   50
   8   22    5   21   19   12   10   13   10    9   16   13    9    7   11   10   11   12   13    9    6   14    7   26    9   12    0   10   12   17   10   23    0    0    0    0    0    0    0    0    0    0    0    0    0    0    0    0    0    0

   0   0   0   0   0   0   0   0   0   0   0   0   0   0   0   0   0   0   0   0   0   0   0   0   0   0   0   0   0   0   0   0   0   0   0   0   0   0   0   0   0   0   0   0   0   0   0   0   0   0   0  11 2 3 4 5 6 7 8 9 10 11 15 
   4   0   0   0   0   0   1   0   3   0   0   2   0   4   0   0   0   0   0   0   0   0   8   0   0   0   0   0   0   0   0   0   3   0   0   0   0   0   0   0   0   0   0   0   0   0   0   0   0   0   0  10 30 29 28 20 19 18 17 16 13 12 
   5   0   2   0   0   6   0   0   0   0   0   0   8   0   0   0   0   0   0   0   0   0   0   0   0   0   0   0   0   0   0   0   0   0   0   0   0   0   0   0   0   0   0   0   0   0   0   0   0   0   0   9 30 29 28 23 20 19 17 14 12 
   1   0   0   0   0   0   0   5   0   0   0   0   0   0   0   0   0   0   0   6   0   0   0   0   0   0   0   0   0   6   0   0   0   0   0   0   0   0   0   0   0   0   0   0   0   0   0   0   0   0   0   8 30 29 28 23 22 16 14 13 
   7   0   2   0   0   0   0   0   0   0   0   0   0   0   0   0   0   8   0   0   0   0   0   2  10   0   0   0   0   6   0   0   0   0   0   0   0   0   0   0   0   0   0   0   0   0   0   0   0   0   0   5 28 23 17 16 12 
   2   0   7   0   0   0   0   0   4   9   0   0   0   0   0   0   0   0   0  10   0   0   0   0   6   0   0   0   0   0   0   0   0   0   0   0   0   0   0   0   0   0   0   0   0   0   0   0   0   0   0   4 28 23 18 13 
   4   0   0   0   0   0   0   3   0   0   0   0   0   0   0   0   0   0   0   0   0   0   0   0   7   0   0   0   0   0   0   0  10   0   0   0   0   0   0   0   0   0   0   0   0   0   0   0   0   0   0   5 30 28 25 23 16 
   6   0   0   5   0   0   0   0   0   0   0   0   0   0   2   0   0   0   0   0   0   3   0   0   0   0   0   0   0   0   0   0   0   0   0   0   0   0   0   0   0   0   0   0   0   0   0   0   0   0   0   5 28 26 23 22 21 
   7   0   0   0   0   0   0   0   0   0   0   0   8   5   0   0  10   0   0   0   0   0   0   0   7   0   6   0   0   0   0   0   0   0   0   0   0   0   0   0   0   0   0   0   0   0   0   0   0   0   0   3 28 22 13 
   5   0   0   0   4   0   0   3   0   0   0   0   0   3   0   0   0   0   0   0   0   0   1   0   0   0   0   0   0   0   0   0   0   0   0   0   0   0   0   0   0   0   0   0   0   0   0   0   0   0   0   3 23 22 16 
   4   0   0   0   0  10   0   0   0   0   0   0   0   0   0   0   0   0   0   0   0   5   9   0   0   9   0   0   0   0   0   0   0   0   0   0   0   0   0   0   0   0   0   0   0   0   0   0   0   0   0   4 31 29 26 17 
   9   1   0   0   7   0   1   0   0   0   0   0   0   0   0   0   0   0   0   1   9   0   0   0   0   0   0   0   0   9   7   0   5   0   0   0   0   0   0   0   0   0   0   0   0   0   0   0   0   0   0   3 26 22 21 
  10   0   0   0   0   0   0   0   0   0   0   0   0   0   0   8   0  10   0   0   0   0   0   0   0   0   0   0   4   0   0   0   0   0   0   0   0   0   0   0   0   0   0   0   0   0   0   0   0   0   0   3 27 26 21 
   8   0   0   0   0   0   0   1   0   8   0   0   0   0   0   0   0   0   0   0   0   0   0   0   0   0   5   0   3   0   0   0   0   0   0   0   0   0   0   0   0   0   0   0   0   0   0   0   0   0   0   3 27 26 21 
   9   0   0   0   8   8   0   0   8   0   0   0   0   0   0   0   0   0   0   0   0   0   0   0   0   0   4   0   0   0   0   0   0   0   0   0   0   0   0   0   0   0   0   0   0   0   0   0   0   0   0   3 27 25 24 
   7   0   0   0   0   0   0   0   0   0   0   4   8   0   0   0   0   0   4   0   0   0   0   0   0   0   0   0   0   0  10   0   0   0   0   0   0   0   0   0   0   0   0   0   0   0   0   0   0   0   0   2 26 24 
   2   0   5   0   2   0   0   2   6   0   0   0   0   0   0   0   0   0   0   0   0   0   0   4   0   0   0   0   0   0   0   0   9   0   0   0   0   0   0   0   0   0   0   0   0   0   0   0   0   0   0   2 25 24 
   1   8   0   0   0   0   0   0   8   0   0   0   0   0   0   0   0   0   0   0   0   0   0   0  10   0   0   0   0   0   0   0   0   0   0   0   0   0   0   0   0   0   0   0   0   0   0   0   0   0   0   2 26 25 
   4   4   5   0   0   0   0   0   0   4   0   8   0   0   0   0   0   3   0   0   0   0   0   0   2   0   0   0   0   0   0   0   9   0   0   0   0   0   0   0   0   0   0   0   0   0   0   0   0   0   0   2 25 24 
   5   0   0   0   6   0   5   0   0   0   0   0   0   0   0   0   0   0   0   0   0   0   0   0   0   0   0   0   0   0   0   0   8   0   0   0   0   0   0   0   0   0   0   0   0   0   0   0   0   0   0   1 21 
   3   0   0   0   0   8   0  10   0   0   0   0   0   6   0   0   0   0   0   0   0   0   0   0   8   0   0   0   0   0   5   5   0   0   0   0   0   0   0   0   0   0   0   0   0   0   0   0   0   0   0   1 24 
   4   3   0   2   0   0   0   0   0   0   0   0   0   0   0   0   0   0   0   8   0   0   0   0   4   0   8   0   0   0   0   0   0   0   0   0   0   0   0   0   0   0   0   0   0   0   0   0   0   0   0   1 25 
   9   0   2   0   0   3   0   0   0   0   8   0   0   0   0   0   0   0   0   0   0   0   0   5   0   0   0   0   0   0   0   7   0   0   0   0   0   0   0   0   0   0   0   0   0   0   0   0   0   0   0   1 27 
  10   0   0   0   2   0   9   0   3   0   0   0   7   0   0   1   0   0   0   0   0   0   0   0   0   0   0   0  10   0   0   0   0   0   0   0   0   0   0   0   0   0   0   0   0   0   0   0   0   0   0   1 32
   7   0   0   0   0   0   0   0   0   0   0   0   0   4   0   0   0   0   0   0   0   0   0   0   9   0   0   0   0   0   0   0   8   0   0   0   0   0   0   0   0   0   0   0   0   0   0   0   0   0   0   1 32
  10   0   0   0   0   0   5   0   0   0   0   0   0   0   0   0   0   0   4   0   0   0   0   0   0   0   0   0   0   0   0   0   9   0   0   0   0   0   0   0   0   0   0   0   0   0   0   0   0   0   0   1 32
   1   0   0   0   0   0   0   0   0   0   9   0   0   0   0   0   0   0   6   0   0   0   0   0   0   0   0   0   1   0   0   0   3   0   0   0   0   0   0   0   0   0   0   0   0   0   0   0   0   0   0   1 32
   5   0   8   0   0   6   0   0   0   0   0   9   0   0   0   0   0   0   0   0   0   0   0   0   0   0   0   0   0   0   0   0   0   0   0   0   0   0   0   0   0   0   0   0   0   0   0   0   0   0   0   1 32
  10   0   2   0   0   0   0   0   0   0   0   0   0   0   6   0   0   0   0   1   0   0   0   0   0   0   0   0   0   0   0   0   0   0   0   0   0   0   0   0   0   0   0   0   0   0   0   0   0   0   0   1 32
  10   0   0   0   0   0   0   0   0   0   0   0   0   0   0   0   0   0   0   0   0   0   0   0   0   0   0   0   0   5   0   0   0   0   0   0   0   0   0   0   0   0   0   0   0   0   0   0   0   0   0   1 32
   8   0   8   0   6   0   1   0   0   0   0   0   0   0   0   6   0   0  10   0   0   0   0   0   8   0   0   0   0   0   5   6   0   0   0   0   0   0   0   0   0   0   0   0   0   0   0   0   0   0   0   1 32
   0   0   0   0   0   0   0   0   0   0   0   0   0   0   0   0   0   0   0   0   0   0   0   0   0   0   0   0   0   0   0   0   0   0   0   0   0   0   0   0   0   0   0   0   0   0   0   0   0   0   0   0 
